; benchmark generated from python API
(set-info :status unknown)
(declare-fun DISJ_W_S1_R_E1 () Bool)
(declare-fun DISJ_W_S1_R_S1 () Bool)
(declare-fun W_S1_V2 () Bool)
(declare-fun W_S1_V4 () Bool)
(declare-fun W_S1_V1 () Bool)
(declare-fun R_E1_V4 () Bool)
(declare-fun R_E1_V2 () Bool)
(declare-fun R_E1_V3 () Bool)
(declare-fun R_S1_V1 () Bool)
(declare-fun R_S1_V4 () Bool)
(declare-fun R_S1_V2 () Bool)
(declare-fun R_S1_V3 () Bool)
(declare-fun W_S1_V3 () Bool)
(declare-fun R_E1_V1 () Bool)
(assert
 (let (($x3912 (not (and (not W_S1_V2) DISJ_W_S1_R_S1 DISJ_W_S1_R_E1))))
 (let (($x4074 (forall ((V3_0 Int) )(forall ((V2_0 Int) )(forall ((V4_0 Int) )(forall ((MW_S1_V1 Bool) )(forall ((MW_S1_V3 Bool) )(forall ((MW_S1_V2 Bool) )(forall ((MW_S1_V4 Bool) )(forall ((S1_V3_!152 Int) )(forall ((S1_V3_!158 Int) )(forall ((S1_V4_!154 Int) )(forall ((S1_V4_!160 Int) )(forall ((S1_V1_!151 Int) )(forall ((S1_V1_!157 Int) )(forall ((S1_V2_!153 Int) )(forall ((S1_V2_!159 Int) )(forall ((E1_!150 Int) )(forall ((E1_!155 Int) )(forall ((E1_!156 Int) )(forall ((E1_!161 Int) )(let ((?x505 (ite MW_S1_V4 S1_V4_!160 V4_0)))
 (let (($x227 (= (ite MW_S1_V4 S1_V4_!154 V4_0) ?x505)))
 (let (($x2999 (and (= (ite MW_S1_V1 S1_V1_!151 E1_!150) (+ (- 1) (ite MW_S1_V2 S1_V2_!159 V2_0))) (= (ite MW_S1_V3 S1_V3_!152 V3_0) (ite MW_S1_V3 S1_V3_!158 V3_0)) (= (ite MW_S1_V2 S1_V2_!153 V2_0) (ite MW_S1_V2 S1_V2_!159 V2_0)) $x227)))
 (let (($x2148 (and (not (<= V2_0 E1_!150)) (>= (ite MW_S1_V1 S1_V1_!151 E1_!150) (+ (- 1) (ite MW_S1_V2 S1_V2_!153 V2_0))) (not (<= V2_0 E1_!155)) (>= V2_0 (+ 1 E1_!156)) (not (<= E1_!161 (+ (- 1) (ite MW_S1_V1 S1_V1_!157 (+ (- 1) V2_0))))))))
 (let (($x972 (= E1_!161 E1_!156)))
 (let (($x356 (and (or (not R_E1_V3) (= (ite MW_S1_V3 S1_V3_!158 V3_0) V3_0)) (or (not R_E1_V2) (= (ite MW_S1_V2 S1_V2_!159 V2_0) V2_0)) (or (not R_E1_V4) (= ?x505 V4_0)))))
 (let (($x2824 (not $x356)))
 (let (($x725 (not (or (not R_S1_V1) (= V2_0 (+ 1 E1_!150))))))
 (let (($x1773 (not (or (not R_S1_V1) (= E1_!150 (+ (- 1) V2_0))))))
 (let (($x1568 (and (or $x1773 (= S1_V3_!152 S1_V3_!158)) (or $x725 (= S1_V4_!160 S1_V4_!154)) (or $x1773 (= S1_V1_!151 S1_V1_!157)) (or $x725 (= S1_V2_!159 S1_V2_!153)) (= E1_!150 E1_!155) (= E1_!150 E1_!156) (= E1_!155 E1_!156) (or $x2824 (= E1_!161 E1_!150)) (or $x2824 (= E1_!161 E1_!155)) (or $x2824 $x972) (or (not MW_S1_V1) W_S1_V1) (or (not MW_S1_V2) W_S1_V2) (or (not MW_S1_V4) W_S1_V4))))
 (or (not $x1568) (not $x2148) $x2999))))))))))))
 )
 )
 )
 )
 )
 )
 )
 )
 )
 )
 )
 )
 )
 )
 )
 )
 )
 )
 ))
 (let (($x5200 (or R_E1_V3 (and W_S1_V2 R_E1_V2) (and W_S1_V4 R_E1_V4))))
 (let (($x6015 (= DISJ_W_S1_R_E1 (not $x5200))))
 (let (($x2193 (and W_S1_V4 R_S1_V4)))
 (let (($x3193 (and W_S1_V2 R_S1_V2)))
 (let (($x3240 (and W_S1_V1 R_S1_V1)))
 (let (($x5349 (= DISJ_W_S1_R_S1 (not (or $x3240 R_S1_V3 $x3193 $x2193)))))
 (let (($x967 (not R_E1_V1)))
 (and (and $x967 W_S1_V3 $x5349 $x6015 $x4074) $x3912)))))))))))
(check-sat)
